unsat
( _c0
  _c1
  _c10
  _c105
  _c11
  _c111
  _c119
  _c12
  _c120
  _c123
  _c129
  _c13
  _c130
  _c131
  _c132
  _c133
  _c134
  _c135
  _c136
  _c137
  _c138
  _c139
  _c14
  _c140
  _c141
  _c142
  _c143
  _c144
  _c145
  _c146
  _c147
  _c148
  _c149
  _c15
  _c150
  _c151
  _c152
  _c153
  _c154
  _c155
  _c156
  _c157
  _c158
  _c159
  _c16
  _c160
  _c161
  _c162
  _c163
  _c164
  _c165
  _c166
  _c167
  _c168
  _c169
  _c17
  _c170
  _c171
  _c172
  _c173
  _c174
  _c175
  _c176
  _c177
  _c178
  _c179
  _c18
  _c180
  _c181
  _c182
  _c183
  _c184
  _c185
  _c186
  _c187
  _c188
  _c189
  _c19
  _c190
  _c191
  _c192
  _c193
  _c194
  _c195
  _c196
  _c197
  _c198
  _c199
  _c2
  _c20
  _c200
  _c201
  _c202
  _c203
  _c204
  _c205
  _c206
  _c207
  _c208
  _c21
  _c211
  _c212
  _c213
  _c214
  _c215
  _c216
  _c217
  _c22
  _c221
  _c225
  _c229
  _c23
  _c230
  _c231
  _c232
  _c233
  _c235
  _c236
  _c237
  _c238
  _c24
  _c241
  _c242
  _c245
  _c246
  _c247
  _c248
  _c249
  _c25
  _c250
  _c251
  _c252
  _c253
  _c254
  _c256
  _c257
  _c258
  _c259
  _c26
  _c261
  _c262
  _c263
  _c264
  _c265
  _c266
  _c267
  _c268
  _c269
  _c27
  _c270
  _c271
  _c272
  _c273
  _c274
  _c275
  _c277
  _c278
  _c279
  _c28
  _c280
  _c281
  _c282
  _c283
  _c284
  _c285
  _c286
  _c287
  _c288
  _c289
  _c29
  _c290
  _c291
  _c292
  _c293
  _c294
  _c295
  _c296
  _c297
  _c298
  _c299
  _c3
  _c30
  _c300
  _c301
  _c302
  _c303
  _c304
  _c305
  _c306
  _c307
  _c308
  _c309
  _c31
  _c310
  _c311
  _c312
  _c313
  _c314
  _c315
  _c316
  _c317
  _c318
  _c319
  _c32
  _c320
  _c321
  _c322
  _c324
  _c325
  _c326
  _c327
  _c328
  _c329
  _c33
  _c330
  _c331
  _c332
  _c333
  _c334
  _c335
  _c336
  _c337
  _c338
  _c339
  _c34
  _c341
  _c342
  _c343
  _c344
  _c345
  _c346
  _c347
  _c348
  _c349
  _c35
  _c350
  _c351
  _c352
  _c353
  _c354
  _c355
  _c356
  _c357
  _c358
  _c359
  _c36
  _c360
  _c362
  _c363
  _c364
  _c365
  _c366
  _c367
  _c368
  _c369
  _c37
  _c370
  _c371
  _c373
  _c374
  _c375
  _c376
  _c377
  _c379
  _c38
  _c380
  _c381
  _c382
  _c384
  _c385
  _c386
  _c387
  _c389
  _c39
  _c390
  _c391
  _c392
  _c395
  _c396
  _c397
  _c398
  _c4
  _c40
  _c400
  _c401
  _c402
  _c403
  _c405
  _c406
  _c407
  _c408
  _c41
  _c411
  _c412
  _c413
  _c414
  _c416
  _c417
  _c418
  _c419
  _c42
  _c421
  _c422
  _c423
  _c424
  _c427
  _c428
  _c429
  _c43
  _c430
  _c432
  _c433
  _c434
  _c435
  _c437
  _c438
  _c439
  _c44
  _c440
  _c443
  _c444
  _c446
  _c447
  _c448
  _c449
  _c45
  _c450
  _c451
  _c452
  _c453
  _c458
  _c459
  _c46
  _c460
  _c461
  _c462
  _c463
  _c465
  _c47
  _c474
  _c476
  _c477
  _c48
  _c49
  _c490
  _c491
  _c492
  _c493
  _c494
  _c495
  _c496
  _c497
  _c498
  _c499
  _c5
  _c50
  _c500
  _c501
  _c502
  _c503
  _c504
  _c505
  _c506
  _c507
  _c508
  _c509
  _c51
  _c510
  _c511
  _c512
  _c513
  _c514
  _c516
  _c517
  _c518
  _c519
  _c52
  _c520
  _c521
  _c522
  _c523
  _c524
  _c525
  _c528
  _c529
  _c53
  _c530
  _c531
  _c532
  _c533
  _c534
  _c536
  _c537
  _c538
  _c539
  _c54
  _c540
  _c541
  _c543
  _c544
  _c545
  _c548
  _c549
  _c55
  _c550
  _c551
  _c552
  _c553
  _c554
  _c555
  _c556
  _c557
  _c558
  _c559
  _c56
  _c560
  _c561
  _c562
  _c563
  _c564
  _c565
  _c566
  _c567
  _c568
  _c569
  _c57
  _c570
  _c571
  _c572
  _c573
  _c574
  _c575
  _c576
  _c577
  _c578
  _c579
  _c58
  _c580
  _c581
  _c582
  _c583
  _c584
  _c585
  _c586
  _c587
  _c588
  _c589
  _c59
  _c590
  _c591
  _c592
  _c593
  _c594
  _c595
  _c596
  _c597
  _c598
  _c599
  _c6
  _c60
  _c600
  _c601
  _c602
  _c603
  _c604
  _c605
  _c606
  _c607
  _c608
  _c609
  _c61
  _c610
  _c611
  _c612
  _c613
  _c614
  _c615
  _c616
  _c617
  _c618
  _c619
  _c62
  _c621
  _c622
  _c623
  _c624
  _c626
  _c627
  _c629
  _c63
  _c630
  _c631
  _c632
  _c633
  _c634
  _c635
  _c636
  _c638
  _c639
  _c64
  _c640
  _c642
  _c643
  _c644
  _c646
  _c647
  _c648
  _c65
  _c654
  _c655
  _c658
  _c659
  _c66
  _c662
  _c663
  _c67
  _c674
  _c678
  _c68
  _c694
  _c695
  _c696
  _c697
  _c698
  _c7
  _c70
  _c700
  _c701
  _c71
  _c713
  _c714
  _c715
  _c716
  _c717
  _c718
  _c719
  _c72
  _c720
  _c721
  _c722
  _c723
  _c724
  _c725
  _c726
  _c727
  _c73
  _c737
  _c74
  _c742
  _c745
  _c746
  _c754
  _c756
  _c767
  _c773
  _c779
  _c780
  _c791
  _c792
  _c793
  _c794
  _c795
  _c796
  _c797
  _c798
  _c799
  _c8
  _c80
  _c800
  _c801
  _c802
  _c803
  _c804
  _c805
  _c806
  _c807
  _c808
  _c809
  _c81
  _c810
  _c812
  _c817
  _c818
  _c819
  _c821
  _c822
  _c828
  _c829
  _c830
  _c831
  _c832
  _c833
  _c834
  _c835
  _c9
  _c93 )
